Version identifier: 22.1.1.0 | 2022-11-28 | 9160aff4d
CPXPARAM_ClockType                               1
CPXPARAM_Read_DataCheck                          1
CPXPARAM_Threads                                 1
CPXPARAM_TimeLimit                               7200
CPXPARAM_MIP_Tolerances_AbsMIPGap                0
CPXPARAM_MIP_Tolerances_MIPGap                   0
CPXPARAM_MIP_Tolerances_Integrality              0
Tried aggregator 4 times.
MIP Presolve eliminated 475551 rows and 16038 columns.
MIP Presolve modified 830 coefficients.
Aggregator did 6381 substitutions.
Reduced MIP has 22213 rows, 16461 columns, and 105841 nonzeros.
Reduced MIP has 16461 binaries, 0 generals, 0 SOSs, and 0 indicators.
Presolve time = 1.14 sec. (613.82 ticks)
Probing time = 0.07 sec. (14.86 ticks)
Tried aggregator 1 time.
Detecting symmetries...
MIP Presolve eliminated 28 rows and 0 columns.
MIP Presolve modified 278 coefficients.
Reduced MIP has 22185 rows, 16461 columns, and 105406 nonzeros.
Reduced MIP has 16461 binaries, 0 generals, 0 SOSs, and 0 indicators.
Presolve time = 0.13 sec. (78.51 ticks)
Probing time = 0.06 sec. (14.15 ticks)
Clique table members: 59679.
MIP emphasis: balance optimality and feasibility.
MIP search method: dynamic search.
Parallel mode: none, using 1 thread.
Root relaxation solution time = 143.42 sec. (104268.64 ticks)

        Nodes                                         Cuts/
   Node  Left     Objective  IInf  Best Integer    Best Bound    ItCnt     Gap

      0     0     3074.0000  3173                   3074.0000    88331         
      0     0     3074.0000  3255                   Cuts: 122   177103         
      0     0     3074.0000  3619                   Cuts: 111   270850         
Heuristic still looking.
Heuristic still looking.
Heuristic still looking.
*     0+    0                            0.0000     3074.0000              --- 
Detecting symmetries...
      0     2     3074.0000  3025        0.0000     3074.0000   270850     --- 
Elapsed time = 1012.11 sec. (763711.26 ticks, tree = 0.01 MB, solutions = 1)
      1     3     3074.0000  4808        0.0000     3074.0000   723000     --- 
      2     4     3074.0000  3715        0.0000     3074.0000   808486     --- 
      3     5     3074.0000  4439        0.0000     3074.0000  1014270     --- 
      4     6     3074.0000  3781        0.0000     3074.0000  1015719     --- 
      5     7     3074.0000  4201        0.0000     3074.0000  1119524     --- 
      6     8     3074.0000  4135        0.0000     3074.0000  1121553     --- 
      7     9     3074.0000  4137        0.0000     3074.0000  1211022     --- 
      8    10     3074.0000  3956        0.0000     3074.0000  1211479     --- 
      9    11     3074.0000  4113        0.0000     3074.0000  1304398     --- 
     10    12     3074.0000  3950        0.0000     3074.0000  1305524     --- 
Elapsed time = 2917.43 sec. (2037231.99 ticks, tree = 0.08 MB, solutions = 1)
     11    13     3074.0000  3944        0.0000     3074.0000  1392811     --- 
     12    14     3074.0000  4160        0.0000     3074.0000  1493399     --- 
     13    15     3074.0000  4072        0.0000     3074.0000  1494519     --- 
     14    16     3074.0000  4300        0.0000     3074.0000  1596883     --- 
     16    18     3074.0000  3999        0.0000     3074.0000  1598374     --- 
     17    19     3074.0000  4037        0.0000     3074.0000  1691598     --- 
     18    20     3074.0000  3945        0.0000     3074.0000  1693903     --- 
     19    21     2975.0000  3961        0.0000     3074.0000  1778586     --- 
     20    22     3074.0000  3972        0.0000     3074.0000  1780912     --- 
     21    23     3074.0000  3987        0.0000     3074.0000  1782752     --- 
Elapsed time = 3875.02 sec. (2630722.23 ticks, tree = 0.16 MB, solutions = 1)
     22    24     3074.0000  4046        0.0000     3074.0000  1882020     --- 
     23    25     3074.0000  4005        0.0000     3074.0000  1883315     --- 
     24    26     3074.0000  4043        0.0000     3074.0000  1974071     --- 
     25    27     3074.0000  4022        0.0000     3074.0000  1975347     --- 
     26    28     3074.0000  4206        0.0000     3074.0000  2072325     --- 
     27    29     3074.0000  4078        0.0000     3074.0000  2073547     --- 
     28    30     3074.0000  4179        0.0000     3074.0000  2157705     --- 
     29    31     3074.0000  4080        0.0000     3074.0000  2158551     --- 
     30    32     3074.0000  4089        0.0000     3074.0000  2162451     --- 
     31    33     3074.0000  4612        0.0000     3074.0000  2208107     --- 
Elapsed time = 4661.09 sec. (3160743.66 ticks, tree = 0.25 MB, solutions = 1)
     32    34     3074.0000  3996        0.0000     3074.0000  2210136     --- 
     33    35     3070.0000  4319        0.0000     3074.0000  2235272     --- 
     34    36     3074.0000  3922        0.0000     3074.0000  2241592     --- 
     35    37     3074.0000  3959        0.0000     3074.0000  2242375     --- 
     36    38     3002.0000  3814        0.0000     3074.0000  2247543     --- 
     37    39     3074.0000  3986        0.0000     3074.0000  2248137     --- 
     38    40     2984.0000  3938        0.0000     3074.0000  2271516     --- 
     40    42     3074.0000  3938        0.0000     3074.0000  2276869     --- 
     41    43     3074.0000  3952        0.0000     3074.0000  2359184     --- 
     42    44     3074.0000  3928        0.0000     3074.0000  2362568     --- 
Elapsed time = 4893.58 sec. (3335059.60 ticks, tree = 0.35 MB, solutions = 1)
     43    45     3074.0000  3924        0.0000     3074.0000  2364163     --- 
     44    46     3074.0000  3897        0.0000     3074.0000  2365445     --- 
     45    47     3074.0000  3899        0.0000     3074.0000  2366572     --- 
     46    48     3074.0000  3820        0.0000     3074.0000  2372037     --- 
     48    50     3074.0000  3798        0.0000     3074.0000  2372872     --- 
     49    51     3074.0000  3795        0.0000     3074.0000  2374269     --- 
     50    52     3074.0000  3816        0.0000     3074.0000  2376074     --- 
     51    53     3074.0000  3537        0.0000     3074.0000  2452320     --- 
     52    54     3074.0000  3737        0.0000     3074.0000  2527016     --- 
     53    55     3074.0000  3498        0.0000     3074.0000  2598265     --- 
Elapsed time = 5304.70 sec. (3626159.55 ticks, tree = 0.59 MB, solutions = 1)
     54    56     3074.0000  3783        0.0000     3074.0000  2673513     --- 
     55    57     3074.0000  3741        0.0000     3074.0000  2744882     --- 
     56    58     3074.0000  3798        0.0000     3074.0000  2746087     --- 
     57    59     2921.0000  3708        0.0000     3074.0000  2816039     --- 
     58    60     3074.0000  3754        0.0000     3074.0000  2817360     --- 
     59    61     3074.0000  3844        0.0000     3074.0000  2818701     --- 
     60    60    infeasible              0.0000     3074.0000  3519773     --- 
     61    61     3074.0000  3880        0.0000     3074.0000  3520793     --- 
     62    62     3074.0000  3858        0.0000     3074.0000  3596419     --- 
     63    63     3074.0000  3946        0.0000     3074.0000  3597423     --- 
Elapsed time = 6892.86 sec. (4775768.74 ticks, tree = 0.65 MB, solutions = 1)
     64    64     3074.0000  3950        0.0000     3074.0000  3600851     --- 
     65    65     3074.0000  3965        0.0000     3074.0000  3601835     --- 
     66    66     3074.0000  3922        0.0000     3074.0000  3605859     --- 
     67    67     3074.0000  3907        0.0000     3074.0000  3607351     --- 
     68    68     3074.0000  3921        0.0000     3074.0000  3608874     --- 
     69    69     3074.0000  3974        0.0000     3074.0000  3614528     --- 

Implied bound cuts applied:  8
Zero-half cuts applied:  64

Root node processing (before b&c):
  Real time             = 1011.54 sec. (763452.37 ticks)
Sequential b&c:
  Real time             = 6188.50 sec. (4241757.33 ticks)
                          ------------
Total (root+branch&cut) = 7200.04 sec. (5005209.71 ticks)
Solution is feasible.

---------------------
@@@ MIP_time_limit_feasible
>>> Benchmark mc2024_track1_151.cnf k 10 OPT 0 TimeCost 7558.541568040848 TimeSolve 7227.133167505264 TimeRead 0.0744941234588623 TimeTrans 331.33390641212463
